122 5
10 10 10 10 10 

0 0 0 0 0 0 5 2 14 26 38 50 
0 0 0 0 0 0 3 3 6 9 
8 0 2 0 0 0 1 4 
2 0 10 0 0 0 1 5 
5 0 5 0 0 0 1 7 
10 0 6 0 0 0 1 7 
4 0 6 0 0 0 2 8 34 
3 0 8 0 0 0 2 12 10 
1 0 10 0 0 0 1 10 
6 0 8 0 0 0 1 11 
1 0 10 0 0 0 1 13 
10 0 10 0 0 0 1 13 
0 0 0 0 0 0 1 62 
0 0 0 0 0 0 2 15 18 
2 4 0 0 0 0 2 21 16 
1 9 0 0 0 0 1 17 
7 6 0 0 0 0 1 19 
4 6 0 0 0 0 1 19 
3 8 0 0 0 0 1 20 
2 6 0 0 0 0 3 24 22 84 
4 10 0 0 0 0 2 24 22 
6 7 0 0 0 0 1 23 
10 10 0 0 0 0 1 25 
3 9 0 0 0 0 1 25 
0 0 0 0 0 0 1 62 
0 0 0 0 0 0 2 27 32 
10 2 0 0 0 0 1 28 
2 9 0 0 0 0 2 31 29 
3 9 0 0 0 0 2 33 30 
7 10 0 0 0 0 1 34 
1 10 0 0 0 0 2 33 43 
3 8 0 0 0 0 1 33 
5 5 0 0 0 0 1 35 
8 9 0 0 0 0 1 35 
2 6 0 0 0 0 1 36 
8 7 0 0 0 0 1 37 
0 0 0 0 0 0 1 62 
0 0 0 0 0 0 2 39 43 
4 0 4 0 0 0 2 48 40 
10 0 7 0 0 0 1 41 
6 0 4 0 0 0 1 42 
4 0 9 0 0 0 2 47 44 
10 0 8 0 0 0 2 47 44 
9 0 10 0 0 0 1 45 
8 0 10 0 0 0 2 46 73 
7 0 10 0 0 0 1 49 
8 0 8 0 0 0 1 49 
3 0 5 0 0 0 1 49 
0 0 0 0 0 0 1 62 
0 0 0 0 0 0 1 51 
3 3 0 0 0 0 1 52 
1 7 0 0 0 0 2 60 53 
5 8 0 0 0 0 2 57 54 
10 10 0 0 0 0 2 59 55 
1 8 0 0 0 0 1 56 
7 8 0 0 0 0 1 58 
6 8 0 0 0 0 1 58 
6 7 0 0 0 0 1 61 
6 10 0 0 0 0 1 61 
2 6 0 0 0 0 1 61 
0 0 0 0 0 0 1 62 
0 0 0 0 0 0 2 63 75 
0 0 0 0 0 0 2 64 66 
4 0 0 0 6 0 2 67 65 
9 0 0 0 2 0 1 68 
3 0 0 0 10 0 1 67 
1 0 0 0 10 0 2 72 69 
8 0 0 0 10 0 2 72 69 
2 0 0 0 10 0 1 70 
8 0 0 0 10 0 1 71 
4 0 0 0 8 0 1 73 
4 0 0 0 5 0 1 73 
2 0 0 0 4 0 1 74 
0 0 0 0 0 0 1 87 
0 0 0 0 0 0 2 76 78 
8 0 3 0 0 0 3 85 80 77 
5 0 8 0 0 0 1 79 
1 0 6 0 0 0 1 79 
7 0 10 0 0 0 1 81 
1 0 7 0 0 0 1 81 
3 0 10 0 0 0 1 82 
6 0 6 0 0 0 1 83 
7 0 8 0 0 0 1 84 
1 0 10 0 0 0 1 86 
9 0 7 0 0 0 1 86 
0 0 0 0 0 0 1 87 
0 0 0 0 0 0 3 88 95 97 
2 2 0 0 0 0 1 89 
5 8 0 0 0 0 1 90 
3 5 0 0 0 0 2 93 91 
1 10 0 0 0 0 1 92 
9 9 0 0 0 0 1 94 
7 7 0 0 0 0 1 94 
7 6 0 0 0 0 1 96 
2 8 0 0 0 0 1 96 
7 10 0 0 0 0 1 98 
6 10 0 0 0 0 1 98 
0 0 0 0 0 0 1 99 
0 0 0 0 0 0 2 100 102 
7 0 2 0 0 0 1 101 
7 0 5 0 0 0 2 109 103 
9 0 9 0 0 0 2 105 104 
10 0 7 0 0 0 1 104 
4 0 10 0 0 0 1 106 
3 0 10 0 0 0 1 106 
4 0 10 0 0 0 1 107 
4 0 8 0 0 0 1 108 
10 0 4 0 0 0 1 110 
9 0 10 0 0 0 1 110 
0 0 0 0 0 0 1 111 
0 0 0 0 0 0 1 112 
7 0 0 0 0 1 3 117 114 113 
1 0 0 0 0 8 1 115 
8 0 0 0 0 6 1 115 
5 0 0 0 0 10 1 116 
6 0 0 0 0 9 1 118 
10 0 0 0 0 10 1 118 
8 0 0 0 0 6 1 119 
1 0 0 0 0 10 2 121 120 
1 0 0 0 0 7 1 122 
7 0 0 0 0 8 1 122 
0 0 0 0 0 0 0 
